
(set-logic ALL) 

(declare-datatype MyList ((Nil) (Cons (head Real) (tail MyList)) )) 
(declare-fun l0 () MyList) 
(declare-fun l1 () MyList) 
(declare-fun l2 () MyList) 
(declare-fun l3 () MyList) 
(declare-fun i0 () Real) 
(declare-fun i1 () Real) 
(assert (or (= l0 Nil) (is-Cons Nil) (= l0 Nil)) )
(assert (= l0 l1) )
(assert (is-Cons l0) )
(assert (is-Nil Nil) )
(assert (and (= l2 Nil) (is-Cons l3)) )
(assert (is-Nil Nil) )
(assert (= l2 Nil) )
(assert (= l1 Nil) )
(check-sat)
